n_res = 5;
n_events = 52;
n_prec = 174;
source = 1;
sink = 52;
min_lvl = [-17, -3, -10, -1, 1];
max_lvl = [-5, 5, 0, 5, 14];
rr = [| 0, -1, -1, 2, -1, -2, 0, -2, -1, 0, 0, 1, 0, -2, 2, 0, -2, 0, 0, -1, 0, 1, 0, 1, 0, 0, 0, 0, 0, -1, -2, -2, 0, -2, 0, 0, 0, 0, 0, 0, 1, 0, -2, 1, -2, -1, 0, 2, 0, -2, 1, 0
      | 0, -1, 1, 0, -1, 0, -1, -2, 2, 0, -2, -2, 0, 0, -1, 0, 1, 0, 1, 2, 0, -1, 0, 1, -2, 0, 2, 0, -2, 2, 0, 0, -1, 0, 2, 0, 1, 2, 0, -1, 1, -2, 0, 0, 2, -1, 0, 0, -1, 2, 0, 0
      | 0, 0, 0, 0, 0, -2, -1, 1, -2, 2, -2, 2, 1, -1, -1, 2, 2, 0, -2, 2, 2, 1, 0, 0, 1, 0, 0, 1, 0, -1, -2, 0, -2, 0, 0, 0, -2, 0, -1, -1, 0, -2, 0, -1, 2, 0, -2, 2, -2, 0, -1, 0
      | 0, -1, 2, 2, 0, 0, -1, 1, 0, -2, 0, -1, 0, -1, -1, -1, 1, 1, 0, 2, -1, -1, 2, -2, 2, 0, 0, 0, 1, 0, 1, 1, 0, 1, 0, 0, 0, 0, -2, -1, 0, 2, 1, -2, 0, 1, 0, 0, 2, 0, -1, 0
      | 0, 0, 1, -1, 0, 2, 1, 2, 1, 1, 0, -1, 0, 1, 2, 0, 0, -2, 0, 1, -1, 0, 0, 0, 0, 1, 0, 1, 0, 2, -2, 0, -2, -1, -2, 2, 2, 1, 0, 0, 0, 2, 2, -1, 1, 0, 0, 0, -2, 2, 1, 0 |];
prec = [| 1, 0, 5
        | 1, 0, 17
        | 1, 0, 7
        | 1, 0, 4
        | 1, 0, 2
        | 1, 0, 3
        | 1, 0, 6
        | 1, 0, 8
        | 2, 1, 45
        | 2, 3, 18
        | 2, 9, 11
        | 2, -2, 25
        | 3, 1, 49
        | 4, 11, 32
        | 4, 1, 24
        | 5, 4, 43
        | 5, -1, 17
        | 6, -2, 33
        | 6, 15, 34
        | 6, 7, 30
        | 6, 4, 45
        | 6, 15, 35
        | 7, 1, 21
        | 7, -1, 51
        | 8, -2, 40
        | 8, 1, 43
        | 8, 11, 32
        | 9, -247, 4
        | 9, -1, 19
        | 9, 26, 13
        | 9, 0, 32
        | 9, -213, 5
        | 9, 7, 16
        | 10, -264, 39
        | 10, 19, 51
        | 10, 13, 12
        | 11, -222, 10
        | 11, -297, 16
        | 11, -338, 18
        | 11, -268, 6
        | 11, 6, 45
        | 11, -384, 39
        | 11, -166, 2
        | 12, 5, 31
        | 12, -250, 8
        | 13, 2, 46
        | 13, 9, 52
        | 14, 5, 32
        | 14, 18, 47
        | 14, -5, 28
        | 15, 6, 50
        | 15, 0, 37
        | 15, 0, 41
        | 15, 0, 26
        | 16, -148, 9
        | 16, -1, 29
        | 17, 27, 47
        | 17, 6, 32
        | 18, -5, 45
        | 18, -317, 2
        | 18, 15, 25
        | 18, 17, 11
        | 19, 5, 34
        | 19, -330, 26
        | 19, -309, 10
        | 19, 1, 40
        | 19, 11, 47
        | 20, 0, 14
        | 20, 0, 39
        | 20, -354, 43
        | 21, 18, 51
        | 22, 4, 19
        | 22, -291, 43
        | 22, 0, 33
        | 22, -1, 34
        | 23, 0, 22
        | 23, 5, 30
        | 23, 1, 48
        | 23, 1, 32
        | 24, 1, 48
        | 24, 7, 10
        | 24, 7, 31
        | 24, 2, 16
        | 25, -259, 39
        | 25, 2, 11
        | 25, -373, 2
        | 25, 20, 45
        | 25, -250, 18
        | 26, -372, 10
        | 26, 16, 25
        | 26, -5, 23
        | 26, 17, 47
        | 27, -2, 26
        | 27, -233, 41
        | 28, 11, 32
        | 28, 27, 13
        | 28, 5, 47
        | 28, 18, 46
        | 29, -1, 11
        | 29, 2, 50
        | 29, -1, 30
        | 30, 0, 50
        | 31, -166, 39
        | 31, 3, 42
        | 31, -337, 4
        | 31, 2, 27
        | 31, -1, 19
        | 31, 4, 25
        | 32, -309, 41
        | 32, -216, 15
        | 32, 0, 47
        | 32, -320, 37
        | 32, -183, 14
        | 33, 3, 48
        | 33, -205, 43
        | 33, -301, 20
        | 33, -259, 26
        | 33, -196, 34
        | 33, 27, 40
        | 34, 12, 47
        | 34, -4, 33
        | 34, -326, 8
        | 34, -325, 23
        | 34, 6, 40
        | 34, -308, 39
        | 35, 0, 48
        | 35, -3, 36
        | 35, -3, 50
        | 35, 8, 9
        | 35, 3, 42
        | 36, 0, 47
        | 36, -304, 35
        | 36, 6, 42
        | 36, 5, 23
        | 37, 0, 28
        | 37, -300, 43
        | 37, -267, 8
        | 37, 2, 14
        | 38, 1, 19
        | 38, 1, 20
        | 39, 0, 50
        | 39, -3, 44
        | 39, 26, 9
        | 39, 21, 23
        | 39, -2, 14
        | 40, -377, 19
        | 40, 6, 48
        | 40, 9, 47
        | 40, -205, 12
        | 41, 1, 10
        | 41, 3, 37
        | 41, 2, 30
        | 42, 0, 9
        | 42, -336, 38
        | 42, 3, 16
        | 43, 7, 30
        | 43, 19, 46
        | 43, 14, 38
        | 44, 10, 51
        | 44, 1, 15
        | 44, 14, 31
        | 45, 4, 52
        | 46, 4, 52
        | 47, -277, 23
        | 47, -191, 43
        | 47, -309, 17
        | 47, -275, 27
        | 47, -368, 32
        | 47, 8, 52
        | 47, -220, 14
        | 48, 5, 52
        | 49, 10, 52
        | 50, 2, 52
        | 51, 7, 52 |];
